benchmarks_CP/INST_36x36/25/inst36x36_25_31.dzn
S=6;
start=[|
9,	-1,	-1,	-1,	-1,	-1,	-1,	-1,	-1,	11,	-1,	-1,	-1,	-1,	-1,	-1,	-1,	-1,	33,	-1,	-1,	5,	25,	-1,	-1,	-1,	32,	-1,	18,	-1,	28,	-1,	-1,	17,	-1,	-1|
-1,	5,	-1,	-1,	-1,	-1,	-1,	-1,	12,	1,	-1,	-1,	-1,	-1,	-1,	9,	-1,	-1,	22,	-1,	16,	-1,	-1,	-1,	-1,	-1,	-1,	-1,	-1,	-1,	-1,	20,	-1,	36,	-1,	-1|
3,	-1,	16,	34,	-1,	-1,	-1,	-1,	-1,	33,	-1,	-1,	-1,	-1,	-1,	-1,	-1,	-1,	6,	-1,	-1,	-1,	20,	-1,	-1,	-1,	-1,	-1,	-1,	-1,	-1,	30,	-1,	-1,	-1,	23|
-1,	-1,	-1,	-1,	32,	-1,	-1,	18,	20,	3,	-1,	-1,	23,	-1,	-1,	-1,	26,	24,	-1,	-1,	-1,	-1,	-1,	8,	30,	6,	-1,	-1,	2,	17,	-1,	22,	-1,	-1,	-1,	-1|
-1,	-1,	-1,	-1,	-1,	-1,	-1,	16,	-1,	-1,	14,	-1,	-1,	31,	-1,	-1,	28,	-1,	-1,	-1,	4,	35,	-1,	-1,	-1,	-1,	9,	-1,	-1,	-1,	-1,	19,	-1,	-1,	-1,	-1|
-1,	23,	-1,	-1,	33,	19,	-1,	-1,	-1,	-1,	-1,	-1,	6,	-1,	-1,	-1,	-1,	-1,	2,	-1,	-1,	-1,	-1,	-1,	-1,	-1,	21,	-1,	-1,	16,	26,	-1,	7,	-1,	-1,	-1|
10,	-1,	-1,	3,	-1,	-1,	36,	2,	-1,	-1,	-1,	-1,	-1,	-1,	6,	-1,	-1,	9,	28,	-1,	-1,	-1,	-1,	-1,	-1,	-1,	-1,	-1,	23,	-1,	-1,	-1,	20,	-1,	-1,	-1|
-1,	-1,	26,	-1,	21,	-1,	-1,	-1,	-1,	-1,	-1,	1,	-1,	-1,	-1,	-1,	-1,	-1,	-1,	-1,	-1,	36,	3,	-1,	-1,	-1,	-1,	-1,	-1,	24,	16,	-1,	-1,	-1,	-1,	-1|
-1,	-1,	22,	-1,	-1,	-1,	-1,	-1,	-1,	-1,	-1,	-1,	-1,	-1,	-1,	-1,	-1,	-1,	-1,	19,	-1,	12,	-1,	-1,	-1,	-1,	-1,	-1,	-1,	-1,	-1,	-1,	23,	-1,	24,	2|
-1,	16,	-1,	33,	5,	-1,	7,	-1,	35,	-1,	-1,	3,	-1,	-1,	-1,	-1,	-1,	-1,	-1,	-1,	-1,	31,	-1,	26,	-1,	-1,	-1,	-1,	-1,	-1,	29,	-1,	-1,	-1,	-1,	13|
-1,	-1,	-1,	-1,	23,	2,	-1,	-1,	28,	-1,	33,	-1,	-1,	-1,	-1,	19,	-1,	-1,	-1,	-1,	-1,	-1,	-1,	-1,	11,	-1,	-1,	-1,	-1,	-1,	-1,	-1,	-1,	-1,	-1,	-1|
31,	-1,	19,	-1,	35,	20,	8,	24,	-1,	-1,	-1,	-1,	15,	-1,	36,	-1,	13,	-1,	-1,	-1,	-1,	-1,	-1,	-1,	-1,	-1,	-1,	18,	-1,	25,	-1,	-1,	-1,	33,	-1,	-1|
26,	-1,	-1,	22,	-1,	-1,	-1,	35,	-1,	-1,	9,	-1,	-1,	15,	32,	-1,	-1,	-1,	31,	-1,	-1,	-1,	-1,	-1,	-1,	-1,	-1,	-1,	-1,	2,	-1,	-1,	-1,	-1,	-1,	33|
-1,	-1,	-1,	-1,	-1,	29,	13,	19,	-1,	24,	-1,	-1,	-1,	-1,	-1,	-1,	-1,	6,	-1,	-1,	-1,	-1,	-1,	-1,	4,	-1,	-1,	28,	-1,	-1,	-1,	-1,	32,	-1,	-1,	-1|
-1,	17,	-1,	-1,	11,	7,	-1,	-1,	-1,	-1,	20,	-1,	-1,	4,	-1,	-1,	22,	-1,	-1,	-1,	-1,	-1,	-1,	-1,	-1,	23,	-1,	-1,	-1,	-1,	-1,	-1,	-1,	-1,	-1,	-1|
-1,	6,	-1,	-1,	1,	3,	-1,	23,	2,	4,	-1,	29,	-1,	-1,	-1,	36,	17,	-1,	-1,	-1,	-1,	24,	-1,	-1,	-1,	-1,	11,	-1,	-1,	-1,	-1,	-1,	14,	-1,	-1,	-1|
-1,	-1,	-1,	35,	-1,	13,	-1,	22,	-1,	-1,	-1,	-1,	-1,	2,	-1,	-1,	-1,	-1,	36,	-1,	-1,	-1,	-1,	-1,	-1,	-1,	-1,	17,	-1,	-1,	24,	-1,	-1,	-1,	-1,	16|
-1,	-1,	34,	-1,	14,	24,	-1,	-1,	-1,	25,	-1,	-1,	-1,	11,	-1,	26,	12,	-1,	23,	-1,	-1,	-1,	-1,	-1,	-1,	-1,	-1,	13,	29,	-1,	-1,	-1,	-1,	-1,	30,	-1|
-1,	-1,	-1,	-1,	-1,	-1,	-1,	29,	-1,	-1,	-1,	7,	-1,	3,	-1,	-1,	9,	-1,	-1,	-1,	-1,	23,	-1,	-1,	-1,	-1,	-1,	-1,	-1,	-1,	-1,	-1,	-1,	-1,	-1,	12|
-1,	-1,	-1,	-1,	-1,	-1,	-1,	-1,	-1,	2,	-1,	34,	-1,	-1,	-1,	-1,	-1,	-1,	-1,	-1,	-1,	-1,	-1,	-1,	-1,	-1,	-1,	-1,	-1,	-1,	-1,	-1,	3,	-1,	-1,	9|
-1,	-1,	-1,	-1,	-1,	-1,	-1,	4,	-1,	-1,	-1,	-1,	-1,	-1,	-1,	-1,	10,	-1,	9,	-1,	-1,	-1,	-1,	-1,	-1,	-1,	28,	-1,	-1,	-1,	-1,	-1,	-1,	-1,	-1,	6|
-1,	-1,	29,	-1,	12,	-1,	-1,	-1,	-1,	-1,	-1,	-1,	-1,	-1,	-1,	-1,	-1,	-1,	5,	-1,	-1,	11,	-1,	-1,	23,	-1,	3,	-1,	-1,	-1,	36,	-1,	-1,	-1,	-1,	-1|
-1,	-1,	-1,	-1,	-1,	-1,	-1,	-1,	-1,	20,	-1,	-1,	32,	7,	-1,	-1,	-1,	14,	12,	-1,	-1,	-1,	13,	16,	-1,	-1,	29,	-1,	-1,	-1,	22,	-1,	-1,	30,	-1,	1|
-1,	-1,	-1,	16,	-1,	-1,	-1,	-1,	-1,	-1,	-1,	-1,	-1,	35,	12,	11,	-1,	-1,	-1,	2,	-1,	-1,	1,	-1,	-1,	-1,	-1,	-1,	-1,	-1,	20,	29,	28,	-1,	-1,	32|
-1,	-1,	30,	-1,	22,	4,	20,	33,	-1,	-1,	26,	-1,	-1,	-1,	-1,	-1,	31,	-1,	-1,	-1,	23,	-1,	-1,	-1,	-1,	-1,	-1,	29,	14,	-1,	-1,	12,	-1,	18,	-1,	-1|
-1,	31,	-1,	-1,	-1,	-1,	16,	-1,	-1,	5,	18,	-1,	-1,	21,	-1,	6,	33,	-1,	-1,	12,	-1,	34,	-1,	-1,	9,	-1,	-1,	23,	-1,	-1,	-1,	-1,	-1,	27,	13,	22|
-1,	-1,	-1,	-1,	-1,	-1,	-1,	27,	-1,	13,	-1,	-1,	-1,	19,	25,	-1,	-1,	-1,	-1,	-1,	28,	8,	24,	-1,	-1,	-1,	-1,	-1,	-1,	-1,	23,	-1,	-1,	-1,	-1,	-1|
-1,	-1,	13,	-1,	-1,	-1,	-1,	-1,	-1,	-1,	12,	24,	-1,	-1,	-1,	-1,	-1,	-1,	-1,	-1,	-1,	-1,	-1,	-1,	3,	-1,	27,	-1,	28,	-1,	-1,	-1,	-1,	-1,	-1,	-1|
33,	-1,	20,	-1,	-1,	-1,	-1,	-1,	-1,	-1,	-1,	35,	-1,	14,	-1,	-1,	-1,	15,	18,	-1,	-1,	-1,	-1,	27,	-1,	-1,	22,	-1,	-1,	-1,	-1,	-1,	-1,	28,	29,	-1|
-1,	21,	-1,	-1,	-1,	-1,	15,	34,	23,	19,	-1,	-1,	27,	-1,	-1,	32,	-1,	-1,	-1,	-1,	-1,	-1,	-1,	33,	-1,	18,	7,	35,	-1,	-1,	-1,	31,	-1,	-1,	11,	-1|
30,	-1,	-1,	-1,	-1,	-1,	-1,	31,	-1,	21,	-1,	-1,	18,	-1,	-1,	-1,	-1,	-1,	-1,	-1,	5,	-1,	-1,	15,	27,	3,	-1,	-1,	19,	28,	-1,	14,	-1,	-1,	-1,	-1|
-1,	-1,	-1,	-1,	-1,	-1,	27,	30,	-1,	-1,	35,	-1,	-1,	23,	-1,	-1,	-1,	-1,	-1,	22,	-1,	-1,	-1,	-1,	-1,	-1,	-1,	33,	-1,	-1,	13,	10,	-1,	-1,	25,	-1|
23,	-1,	-1,	-1,	-1,	-1,	14,	-1,	-1,	-1,	3,	-1,	35,	-1,	-1,	-1,	-1,	-1,	-1,	-1,	1,	-1,	33,	-1,	-1,	-1,	-1,	-1,	-1,	-1,	-1,	-1,	22,	-1,	-1,	4|
-1,	-1,	-1,	-1,	-1,	-1,	-1,	-1,	-1,	-1,	-1,	5,	12,	-1,	-1,	-1,	3,	-1,	-1,	-1,	-1,	-1,	-1,	-1,	-1,	-1,	-1,	-1,	-1,	-1,	-1,	-1,	35,	-1,	-1,	-1|
-1,	-1,	28,	15,	26,	-1,	12,	7,	4,	18,	-1,	-1,	22,	6,	21,	33,	-1,	-1,	-1,	10,	-1,	-1,	-1,	-1,	-1,	25,	-1,	-1,	-1,	11,	3,	9,	-1,	-1,	-1,	29|
11,	-1,	14,	-1,	-1,	-1,	-1,	-1,	15,	-1,	-1,	-1,	-1,	-1,	-1,	-1,	-1,	5,	-1,	-1,	12,	-1,	6,	35,	-1,	-1,	-1,	-1,	-1,	29,	-1,	-1,	1,	-1,	-1,	-1|];
